\ LP format - for model browsing. Use MPS format to capture full model detail.
Maximize
  9 x_1 + 6 x_2 + 5 x_3 + 2 x_4 + 7 x_5 + 3 x_6 + 6 x_7 + 8 x_8 + x_9
   + 7 x_10
Subject To
 C_1: 10 x_4 + x_5 + 5 x_8 + 8 x_10 <= 12
 C_2: 7 x_3 + 5 x_4 + 3 x_5 + 5 x_7 + 2 x_9 + 8 x_10 <= 15
 C_3: 3 x_3 + 7 x_5 + 10 x_6 + 3 x_7 + 3 x_10 <= 13
 C_4: 7 x_1 + 9 x_2 + 9 x_3 + 3 x_4 + 7 x_7 <= 17
 C_5: 9 x_1 + 10 x_2 + 2 x_4 + 3 x_6 + 7 x_8 + 2 x_9 + 5 x_10 <= 19
 C_6: 10 x_3 + 5 x_8 <= 7
 C_7: 9 x_2 + 2 x_3 + 7 x_7 + 5 x_9 <= 11
 C_8: 9 x_1 + 4 x_2 + 10 x_5 + 6 x_6 + 3 x_7 + 9 x_8 + 7 x_9 + 2 x_10
   <= 25
 C_9: 3 x_1 + 3 x_5 <= 3
 C_10: 6 x_2 + 6 x_5 + 4 x_7 + 7 x_8 <= 11
Bounds
Binaries
 x_1 x_2 x_3 x_4 x_5 x_6 x_7 x_8 x_9 x_10
End
